column=9;
row=9;
Board=[|0,0,4,8,0,0,0,0,0|0,0,0,0,2,5,0,1,0|0,0,2,9,0,6,0,0,0|0,0,0,0,0,0,0,0,0|4,0,0,1,0,2,0,0,0|0,0,0,3,0,0,5,9,0|2,0,0,0,0,0,0,0,0|0,4,6,0,8,0,7,3,1|7,9,0,5,4,3,0,0,0|];
horizontal=[|1,0,1,0,0,0,0,0|2,0,0,0,1,2,0,0|0,0,0,2,0,2,0,0|0,0,0,0,0,0,0,0|0,1,0,0,0,0,0,0|0,1,0,0,0,0,0,0|1,2,0,1,2,0,0,0|0,1,2,1,1,0,0,0|0,0,0,2,0,0,2,1|];
vertical=[|0,0,1,0,0,0,1,0,0|0,0,2,0,0,1,1,0,2|2,0,1,2,0,1,0,2,0|0,1,0,0,0,0,0,1,1|2,0,1,0,2,0,0,1,0|0,1,0,0,0,0,0,2,1|1,0,0,0,0,0,2,0,2|1,0,0,1,2,2,0,0,1|];
